NAME: random-96-23025
TYPE: TSP
COMMENT: size=96 seed=23025
DIMENSION: 194
EDGE_WEIGHT_TYPE: EUC_2D
NODE_COORD_SECTION
+0 175 109
-0 175 109
+1 148 273
-1 899 340
+2 995 638
-2 990 652
+3 896 38
-3 865 763
+4 84 706
-4 284 567
+5 611 861
-5 758 244
+6 146 921
-6 776 718
+7 434 207
-7 305 447
+8 626 151
-8 894 446
+9 273 573
-9 229 608
+10 39 719
-10 392 538
+11 478 194
-11 379 885
+12 337 869
-12 769 472
+13 22 737
-13 716 299
+14 406 704
-14 952 657
+15 687 98
-15 836 385
+16 126 994
-16 256 617
+17 866 719
-17 834 457
+18 662 445
-18 166 979
+19 673 409
-19 774 474
+20 55 108
-20 570 928
+21 748 610
-21 328 906
+22 511 477
-22 957 784
+23 571 804
-23 130 884
+24 164 800
-24 903 692
+25 488 294
-25 164 765
+26 692 136
-26 100 558
+27 15 981
-27 166 612
+28 82 52
-28 486 61
+29 884 969
-29 168 359
+30 35 591
-30 207 467
+31 29 279
-31 860 869
+32 395 833
-32 516 714
+33 783 811
-33 874 756
+34 993 588
-34 982 82
+35 961 69
-35 615 508
+36 320 833
-36 545 93
+37 540 694
-37 752 987
+38 428 422
-38 900 839
+39 926 235
-39 114 120
+40 293 707
-40 264 937
+41 459 983
-41 960 410
+42 845 141
-42 710 226
+43 141 552
-43 608 833
+44 328 805
-44 871 174
+45 216 567
-45 425 678
+46 587 93
-46 791 356
+47 502 313
-47 650 297
+48 247 747
-48 884 329
+49 515 779
-49 570 564
+50 739 679
-50 787 75
+51 100 708
-51 797 757
+52 218 74
-52 959 921
+53 868 356
-53 492 656
+54 108 676
-54 559 592
+55 575 411
-55 679 253
+56 553 696
-56 519 787
+57 582 590
-57 208 676
+58 322 612
-58 132 65
+59 761 332
-59 782 275
+60 488 147
-60 67 919
+61 746 660
-61 312 908
+62 373 698
-62 689 10
+63 718 263
-63 472 379
+64 117 432
-64 553 424
+65 141 968
-65 353 846
+66 848 310
-66 169 848
+67 123 681
-67 744 526
+68 528 294
-68 861 192
+69 311 544
-69 381 838
+70 898 80
-70 698 492
+71 107 47
-71 473 576
+72 264 891
-72 641 968
+73 516 188
-73 609 195
+74 328 792
-74 450 947
+75 915 208
-75 245 302
+76 547 969
-76 28 792
+77 289 609
-77 849 214
+78 734 314
-78 720 308
+79 354 641
-79 372 868
+80 400 238
-80 620 203
+81 948 707
-81 187 898
+82 359 460
-82 252 797
+83 222 617
-83 771 937
+84 140 106
-84 964 313
+85 851 460
-85 924 578
+86 710 406
-86 271 541
+87 134 578
-87 996 981
+88 781 232
-88 892 536
+89 362 973
-89 841 436
+90 904 982
-90 414 887
+91 97 124
-91 389 333
+92 268 71
-92 412 604
+93 689 949
-93 903 256
+94 991 959
-94 330 24
+95 315 429
-95 980 21
+96 923 16
-96 789 595
PRECEDENCE_SECTION
+0 -0
+1 -1
+2 -2
+3 -3
+4 -4
+5 -5
+6 -6
+7 -7
+8 -8
+9 -9
+10 -10
+11 -11
+12 -12
+13 -13
+14 -14
+15 -15
+16 -16
+17 -17
+18 -18
+19 -19
+20 -20
+21 -21
+22 -22
+23 -23
+24 -24
+25 -25
+26 -26
+27 -27
+28 -28
+29 -29
+30 -30
+31 -31
+32 -32
+33 -33
+34 -34
+35 -35
+36 -36
+37 -37
+38 -38
+39 -39
+40 -40
+41 -41
+42 -42
+43 -43
+44 -44
+45 -45
+46 -46
+47 -47
+48 -48
+49 -49
+50 -50
+51 -51
+52 -52
+53 -53
+54 -54
+55 -55
+56 -56
+57 -57
+58 -58
+59 -59
+60 -60
+61 -61
+62 -62
+63 -63
+64 -64
+65 -65
+66 -66
+67 -67
+68 -68
+69 -69
+70 -70
+71 -71
+72 -72
+73 -73
+74 -74
+75 -75
+76 -76
+77 -77
+78 -78
+79 -79
+80 -80
+81 -81
+82 -82
+83 -83
+84 -84
+85 -85
+86 -86
+87 -87
+88 -88
+89 -89
+90 -90
+91 -91
+92 -92
+93 -93
+94 -94
+95 -95
+96 -96
EOF
